(set-info :source |printed by MathSAT|)
(declare-fun |.x{1}| () (Array Int (Array Int Int)))
(declare-fun |.x{1051}| () (Array Int (Array Int Int)))
(declare-fun |.x{2}| () (Array Int (Array Int Int)))
(declare-fun |.x{1052}| () (Array Int (Array Int Int)))
(declare-fun |.x{58}| () Int)
(declare-fun |.x{1053}| () Int)
(declare-fun |.x{4}| () Int)
(declare-fun |.x{1054}| () Int)
(declare-fun |.x{60}| () Int)
(declare-fun |.x{1055}| () Int)
(declare-fun |.x{6}| () Int)
(declare-fun |.x{1056}| () Int)
(declare-fun |.x{62}| () Int)
(declare-fun |.x{1057}| () Int)
(declare-fun |.x{8}| () Int)
(declare-fun |.x{1058}| () Int)
(declare-fun |.x{64}| () Int)
(declare-fun |.x{1059}| () Int)
(declare-fun |.x{10}| () Int)
(declare-fun |.x{1060}| () Int)
(declare-fun |.x{66}| () Int)
(declare-fun |.x{1061}| () Int)
(declare-fun |.x{12}| () Int)
(declare-fun |.x{1062}| () Int)
(declare-fun |.x{13}| () Int)
(declare-fun |.x{1063}| () Int)
(declare-fun |.x{69}| () Int)
(declare-fun |.x{1064}| () Int)
(declare-fun |.x{15}| () Int)
(declare-fun |.x{1065}| () Int)
(declare-fun |.x{71}| () (Array Int Int))
(declare-fun |.x{1066}| () (Array Int Int))
(declare-fun |.x{17}| () (Array Int Int))
(declare-fun |.x{1067}| () (Array Int Int))
(declare-fun |.x{73}| () Int)
(declare-fun |.x{1068}| () Int)
(declare-fun |.x{19}| () Int)
(declare-fun |.x{1069}| () Int)
(declare-fun |.x{20}| () (Array Int (Array Int Int)))
(declare-fun |.x{1070}| () (Array Int (Array Int Int)))
(declare-fun |.x{21}| () (Array Int (Array Int Int)))
(declare-fun |.x{1071}| () (Array Int (Array Int Int)))
(declare-fun |.x{77}| () Int)
(declare-fun |.x{1072}| () Int)
(declare-fun |.x{23}| () Int)
(declare-fun |.x{1073}| () Int)
(declare-fun |.x{79}| () (Array Int Int))
(declare-fun |.x{1074}| () (Array Int Int))
(declare-fun |.x{25}| () (Array Int Int))
(declare-fun |.x{1075}| () (Array Int Int))
(declare-fun |.x{26}| () (Array Int (Array Int Int)))
(declare-fun |.x{1076}| () (Array Int (Array Int Int)))
(declare-fun |.x{27}| () (Array Int (Array Int Int)))
(declare-fun |.x{1077}| () (Array Int (Array Int Int)))
(declare-fun |.x{28}| () Int)
(declare-fun |.x{1078}| () Int)
(declare-fun |.x{29}| () Int)
(declare-fun |.x{1079}| () Int)
(declare-fun |.x{30}| () Int)
(declare-fun |.x{1080}| () Int)
(declare-fun |.x{31}| () Int)
(declare-fun |.x{1081}| () Int)
(declare-fun |.x{32}| () Int)
(declare-fun |.x{1082}| () Int)
(declare-fun |.x{33}| () Int)
(declare-fun |.x{1083}| () Int)
(declare-fun |.x{34}| () Int)
(declare-fun |.x{1084}| () Int)
(declare-fun |.x{35}| () Int)
(declare-fun |.x{1085}| () Int)
(declare-fun |.x{36}| () Int)
(declare-fun |.x{1086}| () Int)
(declare-fun |.x{37}| () Int)
(declare-fun |.x{1087}| () Int)
(declare-fun |.x{38}| () Int)
(declare-fun |.x{1088}| () Int)
(declare-fun |.x{39}| () Int)
(declare-fun |.x{1089}| () Int)
(declare-fun |.x{40}| () Int)
(declare-fun |.x{1090}| () Int)
(declare-fun |.x{41}| () Int)
(declare-fun |.x{1091}| () Int)
(declare-fun |.x{42}| () Int)
(declare-fun |.x{1092}| () Int)
(declare-fun |.x{43}| () Int)
(declare-fun |.x{1093}| () Int)
(declare-fun |.x{44}| () Int)
(declare-fun |.x{1094}| () Int)
(declare-fun |.x{45}| () Int)
(declare-fun |.x{1095}| () Int)
(declare-fun |.x{46}| () Int)
(declare-fun |.x{1096}| () Int)
(declare-fun |.x{47}| () Int)
(declare-fun |.x{1097}| () Int)
(declare-fun |.x{48}| () Int)
(declare-fun |.x{1098}| () Int)
(declare-fun |.x{49}| () Int)
(declare-fun |.x{1099}| () Int)
(declare-fun |.x{50}| () Int)
(declare-fun |.x{1100}| () Int)
(declare-fun |.x{51}| () Int)
(declare-fun |.x{1101}| () Int)
(declare-fun |.x{52}| () Int)
(declare-fun |.x{1102}| () Int)
(declare-fun |.x{53}| () Int)
(declare-fun |.x{1103}| () Int)
(declare-fun |.x{54}| () Int)
(declare-fun |.x{1104}| () Int)
(declare-fun |.x{55}| () Bool)
(declare-fun |.x{995}| () Bool)
(declare-fun |.loc{3}| () Bool)
(declare-fun |.loc{5}| () Bool)
(declare-fun |.loc{4}| () Bool)
(declare-fun |.loc{6}| () Bool)
(declare-fun |.x{724}| () Int)
(declare-fun |.x{723}| () Int)
(declare-fun |.x{374}| () Int)
(declare-fun |.x{389}| () Int)
(declare-fun |.x{385}| () Int)
(declare-fun |.x{388}| () Int)
(define-fun .def_120 () Bool (! |.loc{4}| :next |.loc{6}|))
(define-fun .def_411 () Bool (not .def_120))
(define-fun .def_118 () Bool (! |.loc{3}| :next |.loc{5}|))
(define-fun .def_198 () Bool (not .def_118))
(define-fun .def_461 () Bool (and .def_198 .def_411))
(define-fun .def_44 () Int (! |.x{19}| :next |.x{1069}|))
(define-fun .def_42 () Int (! |.x{73}| :next |.x{1068}|))
(define-fun .def_447 () Bool (= .def_42 .def_44))
(define-fun .def_60 () (Array Int (Array Int Int)) (! |.x{27}| :next |.x{1077}|))
(define-fun .def_58 () (Array Int (Array Int Int)) (! |.x{26}| :next |.x{1076}|))
(define-fun .def_446 () Bool (= .def_58 .def_60))
(define-fun .def_448 () Bool (and .def_446 .def_447))
(define-fun .def_116 () Bool (! |.x{55}| :next |.x{995}|))
(define-fun .def_445 () Bool (not .def_116))
(define-fun .def_449 () Bool (and .def_445 .def_448))
(define-fun .def_30 () Int (! |.x{12}| :next |.x{1062}|))
(define-fun .def_28 () Int (! |.x{66}| :next |.x{1061}|))
(define-fun .def_444 () Bool (= .def_28 .def_30))
(define-fun .def_450 () Bool (and .def_444 .def_449))
(define-fun .def_14 () Int (! |.x{4}| :next |.x{1054}|))
(define-fun .def_12 () Int (! |.x{58}| :next |.x{1053}|))
(define-fun .def_443 () Bool (= .def_12 .def_14))
(define-fun .def_451 () Bool (and .def_443 .def_450))
(define-fun .def_40 () (Array Int Int) (! |.x{17}| :next |.x{1067}|))
(define-fun .def_38 () (Array Int Int) (! |.x{71}| :next |.x{1066}|))
(define-fun .def_442 () Bool (= .def_38 .def_40))
(define-fun .def_452 () Bool (and .def_442 .def_451))
(define-fun .def_26 () Int (! |.x{10}| :next |.x{1060}|))
(define-fun .def_24 () Int (! |.x{64}| :next |.x{1059}|))
(define-fun .def_441 () Bool (= .def_24 .def_26))
(define-fun .def_453 () Bool (and .def_441 .def_452))
(define-fun .def_36 () Int (! |.x{15}| :next |.x{1065}|))
(define-fun .def_34 () Int (! |.x{69}| :next |.x{1064}|))
(define-fun .def_440 () Bool (= .def_34 .def_36))
(define-fun .def_454 () Bool (and .def_440 .def_453))
(define-fun .def_18 () Int (! |.x{6}| :next |.x{1056}|))
(define-fun .def_16 () Int (! |.x{60}| :next |.x{1055}|))
(define-fun .def_439 () Bool (= .def_16 .def_18))
(define-fun .def_455 () Bool (and .def_439 .def_454))
(define-fun .def_10 () (Array Int (Array Int Int)) (! |.x{2}| :next |.x{1052}|))
(define-fun .def_8 () (Array Int (Array Int Int)) (! |.x{1}| :next |.x{1051}|))
(define-fun .def_438 () Bool (= .def_8 .def_10))
(define-fun .def_456 () Bool (and .def_438 .def_455))
(define-fun .def_52 () Int (! |.x{23}| :next |.x{1073}|))
(define-fun .def_50 () Int (! |.x{77}| :next |.x{1072}|))
(define-fun .def_437 () Bool (= .def_50 .def_52))
(define-fun .def_457 () Bool (and .def_437 .def_456))
(define-fun .def_22 () Int (! |.x{8}| :next |.x{1058}|))
(define-fun .def_20 () Int (! |.x{62}| :next |.x{1057}|))
(define-fun .def_436 () Bool (= .def_20 .def_22))
(define-fun .def_458 () Bool (and .def_436 .def_457))
(define-fun .def_56 () (Array Int Int) (! |.x{25}| :next |.x{1075}|))
(define-fun .def_54 () (Array Int Int) (! |.x{79}| :next |.x{1074}|))
(define-fun .def_435 () Bool (= .def_54 .def_56))
(define-fun .def_459 () Bool (and .def_435 .def_458))
(define-fun .def_48 () (Array Int (Array Int Int)) (! |.x{21}| :next |.x{1071}|))
(define-fun .def_46 () (Array Int (Array Int Int)) (! |.x{20}| :next |.x{1070}|))
(define-fun .def_434 () Bool (= .def_46 .def_48))
(define-fun .def_460 () Bool (and .def_434 .def_459))
(define-fun .def_462 () Bool (! (and .def_460 .def_461) :init true))
(define-fun .def_431 () Bool (= .def_44 |.x{1069}|))
(define-fun .def_429 () Bool (= .def_40 |.x{1067}|))
(define-fun .def_427 () Bool (= .def_36 |.x{1065}|))
(define-fun .def_32 () Int (! |.x{13}| :next |.x{1063}|))
(define-fun .def_425 () Bool (= .def_32 |.x{1063}|))
(define-fun .def_423 () Bool (= .def_30 |.x{1062}|))
(define-fun .def_421 () Bool (= .def_26 |.x{1060}|))
(define-fun .def_419 () Bool (= .def_22 |.x{1058}|))
(define-fun .def_417 () Bool (= .def_18 |.x{1056}|))
(define-fun .def_415 () Bool (= .def_14 |.x{1054}|))
(define-fun .def_413 () Bool (= .def_10 |.x{1052}|))
(define-fun .def_409 () Bool (= .def_60 |.x{1077}|))
(define-fun .def_407 () Bool (= .def_56 |.x{1075}|))
(define-fun .def_405 () Bool (= .def_48 |.x{1071}|))
(define-fun .def_404 () Bool (= .def_52 |.x{1073}|))
(define-fun .def_406 () Bool (and .def_404 .def_405))
(define-fun .def_408 () Bool (and .def_406 .def_407))
(define-fun .def_410 () Bool (and .def_408 .def_409))
(define-fun .def_412 () Bool (and .def_410 .def_411))
(define-fun .def_414 () Bool (and .def_412 .def_413))
(define-fun .def_416 () Bool (and .def_414 .def_415))
(define-fun .def_418 () Bool (and .def_416 .def_417))
(define-fun .def_420 () Bool (and .def_418 .def_419))
(define-fun .def_422 () Bool (and .def_420 .def_421))
(define-fun .def_424 () Bool (and .def_422 .def_423))
(define-fun .def_426 () Bool (and .def_424 .def_425))
(define-fun .def_428 () Bool (and .def_426 .def_427))
(define-fun .def_430 () Bool (and .def_428 .def_429))
(define-fun .def_432 () Bool (and .def_430 .def_431))
(define-fun .def_400 () Bool (not |.loc{5}|))
(define-fun .def_215 () Bool (= |.x{724}| |.x{723}|))
(define-fun .def_392 () Bool (not .def_215))
(define-fun .def_393 () Bool (or .def_116 .def_392))
(define-fun .def_222 () (Array Int Int) (select |.x{1070}| |.x{1057}|))
(define-fun .def_223 () Int (select .def_222 |.x{1064}|))
(define-fun .def_224 () Bool (= |.x{723}| .def_223))
(define-fun .def_219 () (Array Int Int) (select |.x{1070}| |.x{1053}|))
(define-fun .def_220 () Int (select .def_219 |.x{1072}|))
(define-fun .def_221 () Bool (= |.x{724}| .def_220))
(define-fun .def_225 () Bool (and .def_221 .def_224))
(define-fun .def_390 () Bool (or .def_116 .def_225))
(define-fun .def_301 () Bool (= |.x{1099}| |.x{388}|))
(define-fun .def_299 () Bool (= |.x{1088}| |.x{1090}|))
(define-fun .def_295 () Int (* (- 1) |.x{1096}|))
(define-fun .def_296 () Int (+ |.x{1088}| .def_295))
(define-fun .def_297 () Bool (= .def_296 (- 4)))
(define-fun .def_288 () Bool (= |.x{1079}| |.x{1091}|))
(define-fun .def_285 () Bool (= |.x{1082}| |.x{1100}|))
(define-fun .def_283 () Bool (= |.x{1084}| |.x{385}|))
(define-fun .def_281 () Bool (= |.x{1085}| |.x{1096}|))
(define-fun .def_279 () Bool (= |.x{1090}| |.x{1098}|))
(define-fun .def_277 () Bool (= |.x{1081}| |.x{1084}|))
(define-fun .def_275 () Bool (= |.x{1086}| |.x{1087}|))
(define-fun .def_273 () Bool (= |.x{1083}| |.x{1099}|))
(define-fun .def_271 () Bool (= |.x{1100}| |.x{389}|))
(define-fun .def_269 () Bool (= |.x{1079}| |.x{1102}|))
(define-fun .def_267 () Bool (= |.x{1080}| |.x{1101}|))
(define-fun .def_261 () Bool (= |.x{1087}| |.x{374}|))
(define-fun .def_260 () Bool (= |.x{1080}| |.x{1091}|))
(define-fun .def_262 () Bool (and .def_260 .def_261))
(define-fun .def_252 () (Array Int Int) (select .def_8 |.x{1102}|))
(define-fun .def_253 () Int (select .def_252 |.x{1085}|))
(define-fun .def_259 () Bool (= .def_253 |.x{388}|))
(define-fun .def_263 () Bool (and .def_259 .def_262))
(define-fun .def_235 () (Array Int Int) (select .def_58 |.x{1102}|))
(define-fun .def_236 () Int (select .def_235 |.x{1085}|))
(define-fun .def_257 () Bool (= .def_236 |.x{385}|))
(define-fun .def_264 () Bool (and .def_257 .def_263))
(define-fun .def_255 () Bool (= .def_253 |.x{389}|))
(define-fun .def_265 () Bool (and .def_255 .def_264))
(define-fun .def_251 () Bool (= |.x{1061}| |.x{1088}|))
(define-fun .def_266 () Bool (and .def_251 .def_265))
(define-fun .def_268 () Bool (and .def_266 .def_267))
(define-fun .def_270 () Bool (and .def_268 .def_269))
(define-fun .def_272 () Bool (and .def_270 .def_271))
(define-fun .def_274 () Bool (and .def_272 .def_273))
(define-fun .def_276 () Bool (and .def_274 .def_275))
(define-fun .def_278 () Bool (and .def_276 .def_277))
(define-fun .def_280 () Bool (and .def_278 .def_279))
(define-fun .def_282 () Bool (and .def_280 .def_281))
(define-fun .def_284 () Bool (and .def_282 .def_283))
(define-fun .def_286 () Bool (and .def_284 .def_285))
(define-fun .def_245 () (Array Int Int) (select .def_46 |.x{1082}|))
(define-fun .def_246 () Int (select .def_245 |.x{1086}|))
(define-fun .def_247 () (Array Int Int) (select .def_46 |.x{1083}|))
(define-fun .def_248 () (Array Int Int) (store .def_247 |.x{1081}| .def_246))
(define-fun .def_249 () (Array Int (Array Int Int)) (store .def_46 |.x{1083}| .def_248))
(define-fun .def_250 () Bool (= |.x{1070}| .def_249))
(define-fun .def_287 () Bool (and .def_250 .def_286))
(define-fun .def_289 () Bool (and .def_287 .def_288))
(define-fun .def_239 () (Array Int Int) (select |.x{1076}| |.x{1083}|))
(define-fun .def_240 () Int (select .def_239 |.x{1081}|))
(define-fun .def_241 () (Array Int Int) (select .def_58 |.x{1083}|))
(define-fun .def_242 () (Array Int Int) (store .def_241 |.x{1081}| .def_240))
(define-fun .def_243 () (Array Int (Array Int Int)) (store .def_58 |.x{1083}| .def_242))
(define-fun .def_244 () Bool (= |.x{1076}| .def_243))
(define-fun .def_290 () Bool (and .def_244 .def_289))
(define-fun .def_238 () Bool (= .def_236 |.x{374}|))
(define-fun .def_291 () Bool (and .def_238 .def_290))
(define-fun .def_229 () (Array Int Int) (select |.x{1051}| |.x{1083}|))
(define-fun .def_230 () Int (select .def_229 |.x{1081}|))
(define-fun .def_231 () (Array Int Int) (select .def_8 |.x{1083}|))
(define-fun .def_232 () (Array Int Int) (store .def_231 |.x{1081}| .def_230))
(define-fun .def_233 () (Array Int (Array Int Int)) (store .def_8 |.x{1083}| .def_232))
(define-fun .def_234 () Bool (= |.x{1051}| .def_233))
(define-fun .def_292 () Bool (and .def_234 .def_291))
(define-fun .def_298 () Bool (and .def_292 .def_297))
(define-fun .def_300 () Bool (and .def_298 .def_299))
(define-fun .def_302 () Bool (and .def_300 .def_301))
(define-fun .def_228 () Bool (= |.x{1068}| |.x{1091}|))
(define-fun .def_303 () Bool (and .def_228 .def_302))
(define-fun .def_388 () Bool (or .def_116 .def_303))
(define-fun .def_94 () Int (! |.x{44}| :next |.x{1094}|))
(define-fun .def_200 () Bool (= .def_94 |.x{1094}|))
(define-fun .def_389 () Bool (and .def_200 .def_388))
(define-fun .def_391 () Bool (and .def_389 .def_390))
(define-fun .def_394 () Bool (and .def_391 .def_393))
(define-fun .def_395 () Bool (and |.x{995}| .def_394))
(define-fun .def_396 () Bool (and .def_198 .def_395))
(define-fun .def_126 () (Array Int Int) (store .def_38 0 0))
(define-fun .def_127 () (Array Int Int) (store .def_126 |.x{1053}| 1))
(define-fun .def_128 () (Array Int Int) (store .def_127 |.x{1057}| 1))
(define-fun .def_193 () (Array Int Int) (store .def_128 |.x{1068}| 1))
(define-fun .def_194 () Bool (= |.x{1066}| .def_193))
(define-fun .def_180 () Int (+ |.x{1061}| 4))
(define-fun .def_140 () (Array Int Int) (select .def_58 |.x{1068}|))
(define-fun .def_190 () Int (select .def_140 .def_180))
(define-fun .def_191 () Bool (= |.x{1064}| .def_190))
(define-fun .def_187 () Bool (<= .def_32 |.x{1068}|))
(define-fun .def_188 () Bool (not .def_187))
(define-fun .def_184 () Bool (= |.x{1053}| 0))
(define-fun .def_185 () Bool (not .def_184))
(define-fun .def_148 () (Array Int Int) (select .def_8 |.x{1068}|))
(define-fun .def_181 () Int (select .def_148 .def_180))
(define-fun .def_182 () Bool (= |.x{1057}| .def_181))
(define-fun .def_178 () Bool (= |.x{1064}| 0))
(define-fun .def_173 () (Array Int Int) (store .def_54 |.x{1053}| 4))
(define-fun .def_174 () (Array Int Int) (store .def_173 |.x{1057}| 4))
(define-fun .def_175 () (Array Int Int) (store .def_174 |.x{1068}| 8))
(define-fun .def_176 () Bool (= |.x{1074}| .def_175))
(define-fun .def_169 () Bool (= |.x{1055}| 0))
(define-fun .def_166 () Bool (= |.x{1057}| 0))
(define-fun .def_167 () Bool (not .def_166))
(define-fun .def_163 () Int (select .def_127 |.x{1057}|))
(define-fun .def_164 () Bool (= .def_163 0))
(define-fun .def_160 () Bool (= |.x{1068}| 0))
(define-fun .def_161 () Bool (not .def_160))
(define-fun .def_158 () Bool (= |.x{1072}| 0))
(define-fun .def_155 () Bool (<= .def_32 |.x{1053}|))
(define-fun .def_156 () Bool (not .def_155))
(define-fun .def_152 () Int (select .def_126 |.x{1053}|))
(define-fun .def_153 () Bool (= .def_152 0))
(define-fun .def_149 () Int (select .def_148 |.x{1061}|))
(define-fun .def_150 () Bool (= |.x{1053}| .def_149))
(define-fun .def_146 () Bool (= |.x{1061}| 0))
(define-fun .def_144 () Bool (= |.x{1059}| 0))
(define-fun .def_141 () Int (select .def_140 |.x{1061}|))
(define-fun .def_142 () Bool (= |.x{1072}| .def_141))
(define-fun .def_136 () (Array Int Int) (select .def_46 |.x{1057}|))
(define-fun .def_137 () Int (select .def_136 |.x{1064}|))
(define-fun .def_138 () Bool (= .def_137 0))
(define-fun .def_132 () (Array Int Int) (select .def_46 |.x{1053}|))
(define-fun .def_133 () Int (select .def_132 |.x{1072}|))
(define-fun .def_134 () Bool (= .def_133 1))
(define-fun .def_129 () Int (select .def_128 |.x{1068}|))
(define-fun .def_130 () Bool (= .def_129 0))
(define-fun .def_122 () Bool (<= .def_32 |.x{1057}|))
(define-fun .def_123 () Bool (not .def_122))
(define-fun .def_131 () Bool (and .def_123 .def_130))
(define-fun .def_135 () Bool (and .def_131 .def_134))
(define-fun .def_139 () Bool (and .def_135 .def_138))
(define-fun .def_143 () Bool (and .def_139 .def_142))
(define-fun .def_145 () Bool (and .def_143 .def_144))
(define-fun .def_147 () Bool (and .def_145 .def_146))
(define-fun .def_151 () Bool (and .def_147 .def_150))
(define-fun .def_154 () Bool (and .def_151 .def_153))
(define-fun .def_157 () Bool (and .def_154 .def_156))
(define-fun .def_159 () Bool (and .def_157 .def_158))
(define-fun .def_162 () Bool (and .def_159 .def_161))
(define-fun .def_165 () Bool (and .def_162 .def_164))
(define-fun .def_168 () Bool (and .def_165 .def_167))
(define-fun .def_170 () Bool (and .def_168 .def_169))
(define-fun .def_177 () Bool (and .def_170 .def_176))
(define-fun .def_179 () Bool (and .def_177 .def_178))
(define-fun .def_183 () Bool (and .def_179 .def_182))
(define-fun .def_186 () Bool (and .def_183 .def_185))
(define-fun .def_189 () Bool (and .def_186 .def_188))
(define-fun .def_192 () Bool (and .def_189 .def_191))
(define-fun .def_195 () Bool (and .def_192 .def_194))
(define-fun .def_196 () Bool (or .def_116 .def_195))
(define-fun .def_397 () Bool (and .def_196 .def_396))
(define-fun .def_70 () Int (! |.x{32}| :next |.x{1082}|))
(define-fun .def_386 () Bool (= .def_70 |.x{1082}|))
(define-fun .def_72 () Int (! |.x{33}| :next |.x{1083}|))
(define-fun .def_384 () Bool (= .def_72 |.x{1083}|))
(define-fun .def_74 () Int (! |.x{34}| :next |.x{1084}|))
(define-fun .def_382 () Bool (= .def_74 |.x{1084}|))
(define-fun .def_76 () Int (! |.x{35}| :next |.x{1085}|))
(define-fun .def_380 () Bool (= .def_76 |.x{1085}|))
(define-fun .def_78 () Int (! |.x{36}| :next |.x{1086}|))
(define-fun .def_378 () Bool (= .def_78 |.x{1086}|))
(define-fun .def_80 () Int (! |.x{37}| :next |.x{1087}|))
(define-fun .def_376 () Bool (= .def_80 |.x{1087}|))
(define-fun .def_82 () Int (! |.x{38}| :next |.x{1088}|))
(define-fun .def_374 () Bool (= .def_82 |.x{1088}|))
(define-fun .def_84 () Int (! |.x{39}| :next |.x{1089}|))
(define-fun .def_372 () Bool (= .def_84 |.x{1089}|))
(define-fun .def_86 () Int (! |.x{40}| :next |.x{1090}|))
(define-fun .def_370 () Bool (= .def_86 |.x{1090}|))
(define-fun .def_88 () Int (! |.x{41}| :next |.x{1091}|))
(define-fun .def_368 () Bool (= .def_88 |.x{1091}|))
(define-fun .def_90 () Int (! |.x{42}| :next |.x{1092}|))
(define-fun .def_366 () Bool (= .def_90 |.x{1092}|))
(define-fun .def_92 () Int (! |.x{43}| :next |.x{1093}|))
(define-fun .def_364 () Bool (= .def_92 |.x{1093}|))
(define-fun .def_96 () Int (! |.x{45}| :next |.x{1095}|))
(define-fun .def_362 () Bool (= .def_96 |.x{1095}|))
(define-fun .def_98 () Int (! |.x{46}| :next |.x{1096}|))
(define-fun .def_360 () Bool (= .def_98 |.x{1096}|))
(define-fun .def_100 () Int (! |.x{47}| :next |.x{1097}|))
(define-fun .def_358 () Bool (= .def_100 |.x{1097}|))
(define-fun .def_102 () Int (! |.x{48}| :next |.x{1098}|))
(define-fun .def_356 () Bool (= .def_102 |.x{1098}|))
(define-fun .def_104 () Int (! |.x{49}| :next |.x{1099}|))
(define-fun .def_354 () Bool (= .def_104 |.x{1099}|))
(define-fun .def_106 () Int (! |.x{50}| :next |.x{1100}|))
(define-fun .def_352 () Bool (= .def_106 |.x{1100}|))
(define-fun .def_108 () Int (! |.x{51}| :next |.x{1101}|))
(define-fun .def_350 () Bool (= .def_108 |.x{1101}|))
(define-fun .def_110 () Int (! |.x{52}| :next |.x{1102}|))
(define-fun .def_348 () Bool (= .def_110 |.x{1102}|))
(define-fun .def_112 () Int (! |.x{53}| :next |.x{1103}|))
(define-fun .def_346 () Bool (= .def_112 |.x{1103}|))
(define-fun .def_114 () Int (! |.x{54}| :next |.x{1104}|))
(define-fun .def_344 () Bool (= .def_114 |.x{1104}|))
(define-fun .def_339 () Bool (= |.x{1094}| .def_100))
(define-fun .def_340 () Bool (or .def_116 .def_339))
(define-fun .def_337 () Bool (= .def_8 |.x{1051}|))
(define-fun .def_335 () Bool (= .def_12 |.x{1053}|))
(define-fun .def_333 () Bool (= .def_16 |.x{1055}|))
(define-fun .def_331 () Bool (= .def_20 |.x{1057}|))
(define-fun .def_329 () Bool (= .def_24 |.x{1059}|))
(define-fun .def_327 () Bool (= .def_28 |.x{1061}|))
(define-fun .def_325 () Bool (= .def_34 |.x{1064}|))
(define-fun .def_323 () Bool (= .def_38 |.x{1066}|))
(define-fun .def_321 () Bool (= .def_42 |.x{1068}|))
(define-fun .def_319 () Bool (= .def_46 |.x{1070}|))
(define-fun .def_317 () Bool (= .def_50 |.x{1072}|))
(define-fun .def_315 () Bool (= .def_54 |.x{1074}|))
(define-fun .def_313 () Bool (= .def_58 |.x{1076}|))
(define-fun .def_62 () Int (! |.x{28}| :next |.x{1078}|))
(define-fun .def_311 () Bool (= .def_62 |.x{1078}|))
(define-fun .def_64 () Int (! |.x{29}| :next |.x{1079}|))
(define-fun .def_309 () Bool (= .def_64 |.x{1079}|))
(define-fun .def_68 () Int (! |.x{31}| :next |.x{1081}|))
(define-fun .def_307 () Bool (= .def_68 |.x{1081}|))
(define-fun .def_66 () Int (! |.x{30}| :next |.x{1080}|))
(define-fun .def_306 () Bool (= .def_66 |.x{1080}|))
(define-fun .def_308 () Bool (and .def_306 .def_307))
(define-fun .def_310 () Bool (and .def_308 .def_309))
(define-fun .def_312 () Bool (and .def_310 .def_311))
(define-fun .def_314 () Bool (and .def_312 .def_313))
(define-fun .def_316 () Bool (and .def_314 .def_315))
(define-fun .def_318 () Bool (and .def_316 .def_317))
(define-fun .def_320 () Bool (and .def_318 .def_319))
(define-fun .def_322 () Bool (and .def_320 .def_321))
(define-fun .def_324 () Bool (and .def_322 .def_323))
(define-fun .def_326 () Bool (and .def_324 .def_325))
(define-fun .def_328 () Bool (and .def_326 .def_327))
(define-fun .def_330 () Bool (and .def_328 .def_329))
(define-fun .def_332 () Bool (and .def_330 .def_331))
(define-fun .def_334 () Bool (and .def_332 .def_333))
(define-fun .def_336 () Bool (and .def_334 .def_335))
(define-fun .def_338 () Bool (and .def_336 .def_337))
(define-fun .def_341 () Bool (and .def_338 .def_340))
(define-fun .def_342 () Bool (and .def_118 .def_341))
(define-fun .def_209 () Bool (= .def_116 |.x{995}|))
(define-fun .def_343 () Bool (and .def_209 .def_342))
(define-fun .def_345 () Bool (and .def_343 .def_344))
(define-fun .def_347 () Bool (and .def_345 .def_346))
(define-fun .def_349 () Bool (and .def_347 .def_348))
(define-fun .def_351 () Bool (and .def_349 .def_350))
(define-fun .def_353 () Bool (and .def_351 .def_352))
(define-fun .def_355 () Bool (and .def_353 .def_354))
(define-fun .def_357 () Bool (and .def_355 .def_356))
(define-fun .def_359 () Bool (and .def_357 .def_358))
(define-fun .def_361 () Bool (and .def_359 .def_360))
(define-fun .def_363 () Bool (and .def_361 .def_362))
(define-fun .def_365 () Bool (and .def_363 .def_364))
(define-fun .def_367 () Bool (and .def_365 .def_366))
(define-fun .def_369 () Bool (and .def_367 .def_368))
(define-fun .def_371 () Bool (and .def_369 .def_370))
(define-fun .def_373 () Bool (and .def_371 .def_372))
(define-fun .def_375 () Bool (and .def_373 .def_374))
(define-fun .def_377 () Bool (and .def_375 .def_376))
(define-fun .def_379 () Bool (and .def_377 .def_378))
(define-fun .def_381 () Bool (and .def_379 .def_380))
(define-fun .def_383 () Bool (and .def_381 .def_382))
(define-fun .def_385 () Bool (and .def_383 .def_384))
(define-fun .def_387 () Bool (and .def_385 .def_386))
(define-fun .def_398 () Bool (or .def_387 .def_397))
(define-fun .def_399 () Bool (and |.loc{6}| .def_398))
(define-fun .def_401 () Bool (and .def_399 .def_400))
(define-fun .def_304 () Bool (or |.x{995}| .def_303))
(define-fun .def_226 () Bool (or |.x{995}| .def_225))
(define-fun .def_212 () Bool (= |.x{1097}| 0))
(define-fun .def_216 () Bool (and .def_212 .def_215))
(define-fun .def_217 () Bool (or |.x{995}| .def_216))
(define-fun .def_206 () Bool (and .def_196 .def_198))
(define-fun .def_207 () Bool (and .def_200 .def_206))
(define-fun .def_208 () Bool (and |.loc{5}| .def_207))
(define-fun .def_210 () Bool (and .def_208 .def_209))
(define-fun .def_204 () Bool (not |.loc{6}|))
(define-fun .def_211 () Bool (and .def_204 .def_210))
(define-fun .def_218 () Bool (and .def_211 .def_217))
(define-fun .def_227 () Bool (and .def_218 .def_226))
(define-fun .def_305 () Bool (and .def_227 .def_304))
(define-fun .def_402 () Bool (or .def_305 .def_401))
(define-fun .def_197 () Bool (and |.x{995}| .def_196))
(define-fun .def_199 () Bool (and .def_197 .def_198))
(define-fun .def_201 () Bool (and .def_199 .def_200))
(define-fun .def_202 () Bool (and |.loc{5}| .def_201))
(define-fun .def_203 () Bool (and .def_116 .def_202))
(define-fun .def_205 () Bool (and .def_203 .def_204))
(define-fun .def_403 () Bool (or .def_205 .def_402))
(define-fun .def_433 () Bool (! (and .def_403 .def_432) :trans true))
(define-fun .def_463 () Bool (and .def_120 .def_198))
(define-fun .def_464 () Bool (and .def_116 .def_463))
(define-fun .def_465 () Bool (! (not .def_464) :invar-property 0))
(assert true)
